* Problem:    rlp1-pow2-prescaled
* Class:      LP
* Rows:       68
* Columns:    519
* Non-zeros:  894
* Format:     Free MPS
*
NAME rlp1-pow2-prescaled
ROWS
 N R0000000
 E R0000001
 E R0000002
 E R0000003
 E R0000004
 E R0000005
 E R0000006
 E R0000007
 E R0000008
 E R0000009
 E R0000010
 E R0000011
 E R0000012
 E R0000013
 E R0000014
 E R0000015
 E R0000016
 E R0000017
 E R0000018
 E R0000019
 E R0000020
 E R0000021
 E R0000022
 E R0000023
 E R0000024
 E R0000025
 E R0000026
 E R0000027
 E R0000028
 E R0000029
 E R0000030
 E R0000031
 E R0000032
 E R0000033
 E R0000034
 E R0000035
 E R0000036
 E R0000037
 E R0000038
 E R0000039
 E R0000040
 E R0000041
 E R0000042
 E R0000043
 E R0000044
 E R0000045
 E R0000046
 E R0000047
 E R0000048
 E R0000049
 E R0000050
 E R0000051
 E R0000052
 E R0000053
 E R0000054
 E R0000055
 E R0000056
 E R0000057
 E R0000058
 E R0000059
 E R0000060
 E R0000061
 E R0000062
 E R0000063
 E R0000064
 E R0000065
 E R0000066
 E R0000067
 E R0000068
COLUMNS
 c0 R0000001 1
 c1 R0000024 8 R0000002 8
 c2 R0000024 7 R0000003 1
 c3 R0000024 8 R0000004 8
 c4 R0000024 7 R0000005 1
 c5 R0000024 8 R0000006 2
 c6 R0000024 14 R0000007 1
 c7 R0000024 14 R0000008 1
 c8 R0000009 1
 c9 R0000010 1
 c10 R0000001 1
 c11 R0000025 8 R0000002 8
 c12 R0000025 7 R0000003 1
 c13 R0000025 8 R0000004 8
 c14 R0000025 7 R0000005 1
 c15 R0000025 8 R0000006 2
 c16 R0000025 14 R0000007 1
 c17 R0000025 14 R0000008 1
 c18 R0000009 1
 c19 R0000010 1
 c20 R0000001 1
 c21 R0000026 8 R0000002 8
 c22 R0000026 7 R0000003 1
 c23 R0000026 8 R0000004 8
 c24 R0000026 7 R0000005 1
 c25 R0000026 8 R0000006 2
 c26 R0000026 14 R0000007 1
 c27 R0000026 14 R0000008 1
 c28 R0000009 1
 c29 R0000010 1
 c30 R0000001 1
 c31 R0000027 8 R0000002 8
 c32 R0000027 7 R0000003 1
 c33 R0000027 8 R0000004 8
 c34 R0000027 7 R0000005 1
 c35 R0000027 8 R0000006 2
 c36 R0000027 14 R0000007 1
 c37 R0000027 14 R0000008 1
 c38 R0000009 1
 c39 R0000010 1
 c40 R0000001 1
 c41 R0000028 32 R0000002 32
 c42 R0000028 7 R0000003 1
 c43 R0000028 8 R0000004 8
 c44 R0000028 7 R0000005 1
 c45 R0000028 8 R0000006 2
 c46 R0000028 14 R0000007 1
 c47 R0000028 14 R0000008 1
 c48 R0000009 1
 c49 R0000010 1
 c50 R0000001 1
 c51 R0000029 8 R0000002 8
 c52 R0000029 7 R0000003 1
 c53 R0000029 8 R0000004 8
 c54 R0000029 7 R0000005 1
 c55 R0000029 8 R0000006 2
 c56 R0000029 14 R0000007 1
 c57 R0000029 14 R0000008 1
 c58 R0000009 1
 c59 R0000010 1
 c60 R0000001 1
 c61 R0000030 8 R0000002 8
 c62 R0000030 7 R0000003 1
 c63 R0000030 8 R0000004 8
 c64 R0000030 7 R0000005 1
 c65 R0000030 8 R0000006 2
 c66 R0000030 14 R0000007 1
 c67 R0000030 14 R0000008 1
 c68 R0000009 1
 c69 R0000010 1
 c70 R0000001 1
 c71 R0000031 8 R0000002 8
 c72 R0000031 7 R0000003 1
 c73 R0000031 8 R0000004 8
 c74 R0000031 7 R0000005 1
 c75 R0000031 8 R0000006 2
 c76 R0000031 14 R0000007 1
 c77 R0000031 14 R0000008 1
 c78 R0000009 1
 c79 R0000010 1
 c80 R0000001 1
 c81 R0000032 8 R0000002 8
 c82 R0000032 7 R0000003 1
 c83 R0000032 8 R0000004 8
 c84 R0000032 7 R0000005 1
 c85 R0000032 8 R0000006 2
 c86 R0000032 14 R0000007 1
 c87 R0000032 14 R0000008 1
 c88 R0000009 1
 c89 R0000010 1
 c90 R0000001 1
 c91 R0000033 8 R0000002 8
 c92 R0000033 7 R0000003 1
 c93 R0000033 8 R0000004 8
 c94 R0000033 7 R0000005 1
 c95 R0000033 8 R0000006 2
 c96 R0000033 14 R0000007 1
 c97 R0000033 14 R0000008 1
 c98 R0000009 1
 c99 R0000010 1
 c100 R0000001 1
 c101 R0000034 8 R0000002 8
 c102 R0000034 7 R0000003 1
 c103 R0000034 8 R0000004 8
 c104 R0000034 7 R0000005 1
 c105 R0000034 8 R0000006 2
 c106 R0000034 14 R0000007 1
 c107 R0000034 14 R0000008 1
 c108 R0000009 1
 c109 R0000010 1
 c110 R0000001 1
 c111 R0000035 8 R0000002 8
 c112 R0000035 7 R0000003 1
 c113 R0000035 8 R0000004 8
 c114 R0000035 7 R0000005 1
 c115 R0000035 8 R0000006 2
 c116 R0000035 14 R0000007 1
 c117 R0000035 14 R0000008 1
 c118 R0000009 1
 c119 R0000010 1
 c120 R0000001 1
 c121 R0000036 8 R0000002 8
 c122 R0000036 7 R0000003 1
 c123 R0000036 8 R0000004 8
 c124 R0000036 7 R0000005 1
 c125 R0000036 8 R0000006 2
 c126 R0000036 14 R0000007 1
 c127 R0000036 14 R0000008 1
 c128 R0000009 1
 c129 R0000010 1
 c130 R0000001 1
 c131 R0000037 8 R0000002 8
 c132 R0000037 7 R0000003 1
 c133 R0000037 8 R0000004 8
 c134 R0000037 7 R0000005 1
 c135 R0000037 8 R0000006 2
 c136 R0000037 14 R0000007 1
 c137 R0000037 14 R0000008 1
 c138 R0000009 1
 c139 R0000010 1
 c140 R0000001 1
 c141 R0000038 8 R0000002 8
 c142 R0000038 7 R0000003 1
 c143 R0000038 8 R0000004 8
 c144 R0000038 7 R0000005 1
 c145 R0000038 8 R0000006 2
 c146 R0000038 14 R0000007 1
 c147 R0000038 14 R0000008 1
 c148 R0000009 1
 c149 R0000010 1
 c150 R0000001 1
 c151 R0000039 8 R0000002 8
 c152 R0000039 7 R0000003 1
 c153 R0000039 8 R0000004 8
 c154 R0000039 7 R0000005 1
 c155 R0000039 8 R0000006 2
 c156 R0000039 14 R0000007 1
 c157 R0000039 14 R0000008 1
 c158 R0000009 1
 c159 R0000010 1
 c160 R0000001 1
 c161 R0000040 8 R0000002 8
 c162 R0000040 7 R0000003 1
 c163 R0000040 8 R0000004 8
 c164 R0000040 7 R0000005 1
 c165 R0000040 8 R0000006 2
 c166 R0000040 14 R0000007 1
 c167 R0000040 14 R0000008 1
 c168 R0000009 1
 c169 R0000010 1
 c170 R0000001 1
 c171 R0000041 8 R0000002 8
 c172 R0000041 7 R0000003 1
 c173 R0000041 8 R0000004 8
 c174 R0000041 7 R0000005 1
 c175 R0000041 8 R0000006 2
 c176 R0000041 14 R0000007 1
 c177 R0000041 14 R0000008 1
 c178 R0000009 1
 c179 R0000010 1
 c180 R0000001 1
 c181 R0000042 8 R0000002 8
 c182 R0000042 7 R0000003 1
 c183 R0000042 8 R0000004 8
 c184 R0000042 7 R0000005 1
 c185 R0000042 8 R0000006 2
 c186 R0000042 14 R0000007 1
 c187 R0000042 14 R0000008 1
 c188 R0000009 1
 c189 R0000010 1
 c190 R0000001 1
 c191 R0000043 8 R0000002 8
 c192 R0000043 7 R0000003 1
 c193 R0000043 8 R0000004 8
 c194 R0000043 7 R0000005 1
 c195 R0000043 8 R0000006 2
 c196 R0000043 14 R0000007 1
 c197 R0000043 14 R0000008 1
 c198 R0000009 1
 c199 R0000010 1
 c200 R0000001 1
 c201 R0000044 8 R0000002 8
 c202 R0000044 7 R0000003 1
 c203 R0000044 8 R0000004 8
 c204 R0000044 7 R0000005 1
 c205 R0000044 8 R0000006 2
 c206 R0000044 14 R0000007 1
 c207 R0000044 14 R0000008 1
 c208 R0000009 1
 c209 R0000010 1
 c210 R0000001 1
 c211 R0000045 2 R0000002 2
 c212 R0000045 7 R0000003 1
 c213 R0000045 2 R0000004 2
 c214 R0000045 7 R0000005 1
 c215 R0000045 4 R0000006 1
 c216 R0000045 14 R0000007 1
 c217 R0000045 14 R0000008 1
 c218 R0000009 1
 c219 R0000010 1
 c220 R0000001 1
 c221 R0000046 8 R0000002 8
 c222 R0000046 7 R0000003 1
 c223 R0000046 8 R0000004 8
 c224 R0000046 7 R0000005 1
 c225 R0000046 8 R0000006 2
 c226 R0000046 14 R0000007 1
 c227 R0000046 14 R0000008 1
 c228 R0000009 1
 c229 R0000010 1
 c230 R0000001 1
 c231 R0000047 8 R0000002 8
 c232 R0000047 7 R0000003 1
 c233 R0000047 8 R0000004 8
 c234 R0000047 7 R0000005 1
 c235 R0000047 8 R0000006 2
 c236 R0000047 14 R0000007 1
 c237 R0000047 14 R0000008 1
 c238 R0000009 1
 c239 R0000010 1
 c240 R0000001 1
 c241 R0000048 8 R0000002 8
 c242 R0000048 7 R0000003 1
 c243 R0000048 8 R0000004 8
 c244 R0000048 7 R0000005 1
 c245 R0000048 8 R0000006 2
 c246 R0000048 14 R0000007 1
 c247 R0000048 14 R0000008 1
 c248 R0000009 1
 c249 R0000010 1
 c250 R0000001 1
 c251 R0000049 8 R0000002 8
 c252 R0000049 7 R0000003 1
 c253 R0000049 8 R0000004 8
 c254 R0000049 7 R0000005 1
 c255 R0000049 8 R0000006 2
 c256 R0000049 14 R0000007 1
 c257 R0000049 14 R0000008 1
 c258 R0000009 1
 c259 R0000010 1
 c260 R0000001 1
 c261 R0000050 8 R0000002 8
 c262 R0000050 7 R0000003 1
 c263 R0000050 8 R0000004 8
 c264 R0000050 7 R0000005 1
 c265 R0000050 8 R0000006 2
 c266 R0000050 14 R0000007 1
 c267 R0000050 14 R0000008 1
 c268 R0000009 1
 c269 R0000010 1
 c270 R0000001 1
 c271 R0000051 8 R0000002 8
 c272 R0000051 7 R0000003 1
 c273 R0000051 8 R0000004 8
 c274 R0000051 7 R0000005 1
 c275 R0000051 8 R0000006 2
 c276 R0000051 14 R0000007 1
 c277 R0000051 14 R0000008 1
 c278 R0000009 1
 c279 R0000010 1
 c280 R0000001 1
 c281 R0000052 8 R0000002 8
 c282 R0000052 7 R0000003 1
 c283 R0000052 8 R0000004 8
 c284 R0000052 7 R0000005 1
 c285 R0000052 8 R0000006 2
 c286 R0000052 14 R0000007 1
 c287 R0000052 14 R0000008 1
 c288 R0000009 1
 c289 R0000010 1
 c290 R0000001 1
 c291 R0000053 8 R0000002 8
 c292 R0000053 7 R0000003 1
 c293 R0000053 8 R0000004 8
 c294 R0000053 7 R0000005 1
 c295 R0000053 8 R0000006 2
 c296 R0000053 14 R0000007 1
 c297 R0000053 14 R0000008 1
 c298 R0000009 1
 c299 R0000010 1
 c300 R0000001 1
 c301 R0000054 8 R0000002 8
 c302 R0000054 7 R0000003 1
 c303 R0000054 8 R0000004 8
 c304 R0000054 7 R0000005 1
 c305 R0000054 8 R0000006 2
 c306 R0000054 14 R0000007 1
 c307 R0000054 14 R0000008 1
 c308 R0000009 1
 c309 R0000010 1
 c310 R0000001 1
 c311 R0000055 8 R0000002 8
 c312 R0000055 7 R0000003 1
 c313 R0000055 8 R0000004 8
 c314 R0000055 7 R0000005 1
 c315 R0000055 8 R0000006 2
 c316 R0000055 14 R0000007 1
 c317 R0000055 14 R0000008 1
 c318 R0000009 1
 c319 R0000010 1
 c320 R0000001 1
 c321 R0000056 8 R0000002 8
 c322 R0000056 7 R0000003 1
 c323 R0000056 8 R0000004 8
 c324 R0000056 7 R0000005 1
 c325 R0000056 8 R0000006 2
 c326 R0000056 14 R0000007 1
 c327 R0000056 14 R0000008 1
 c328 R0000009 1
 c329 R0000010 1
 c330 R0000001 1
 c331 R0000057 8 R0000002 8
 c332 R0000057 7 R0000003 1
 c333 R0000057 8 R0000004 8
 c334 R0000057 7 R0000005 1
 c335 R0000057 8 R0000006 2
 c336 R0000057 14 R0000007 1
 c337 R0000057 14 R0000008 1
 c338 R0000009 1
 c339 R0000010 1
 c340 R0000001 1
 c341 R0000058 8 R0000002 8
 c342 R0000058 7 R0000003 1
 c343 R0000058 8 R0000004 8
 c344 R0000058 7 R0000005 1
 c345 R0000058 8 R0000006 2
 c346 R0000058 14 R0000007 1
 c347 R0000058 14 R0000008 1
 c348 R0000009 1
 c349 R0000010 1
 c350 R0000001 1
 c351 R0000059 8 R0000002 8
 c352 R0000059 7 R0000003 1
 c353 R0000059 8 R0000004 8
 c354 R0000059 7 R0000005 1
 c355 R0000059 8 R0000006 2
 c356 R0000059 14 R0000007 1
 c357 R0000059 14 R0000008 1
 c358 R0000009 1
 c359 R0000010 1
 c360 R0000001 1
 c361 R0000060 8 R0000002 8
 c362 R0000060 7 R0000003 1
 c363 R0000060 8 R0000004 8
 c364 R0000060 7 R0000005 1
 c365 R0000060 8 R0000006 2
 c366 R0000060 14 R0000007 1
 c367 R0000060 14 R0000008 1
 c368 R0000009 1
 c369 R0000010 1
 c370 R0000001 1
 c371 R0000061 8 R0000002 8
 c372 R0000061 7 R0000003 1
 c373 R0000061 8 R0000004 8
 c374 R0000061 7 R0000005 1
 c375 R0000061 8 R0000006 2
 c376 R0000061 14 R0000007 1
 c377 R0000061 14 R0000008 1
 c378 R0000009 1
 c379 R0000010 1
 c380 R0000001 1
 c381 R0000062 8 R0000002 8
 c382 R0000062 7 R0000003 1
 c383 R0000062 8 R0000004 8
 c384 R0000062 7 R0000005 1
 c385 R0000062 8 R0000006 2
 c386 R0000062 14 R0000007 1
 c387 R0000062 14 R0000008 1
 c388 R0000009 1
 c389 R0000010 1
 c390 R0000001 1
 c391 R0000063 8 R0000002 8
 c392 R0000063 7 R0000003 1
 c393 R0000063 8 R0000004 8
 c394 R0000063 7 R0000005 1
 c395 R0000063 8 R0000006 2
 c396 R0000063 14 R0000007 1
 c397 R0000063 14 R0000008 1
 c398 R0000009 1
 c399 R0000010 1
 c400 R0000001 1
 c401 R0000064 8 R0000002 8
 c402 R0000064 7 R0000003 1
 c403 R0000064 8 R0000004 8
 c404 R0000064 7 R0000005 1
 c405 R0000064 8 R0000006 2
 c406 R0000064 14 R0000007 1
 c407 R0000064 14 R0000008 1
 c408 R0000009 1
 c409 R0000010 1
 c410 R0000001 1
 c411 R0000065 8 R0000002 8
 c412 R0000065 7 R0000003 1
 c413 R0000065 8 R0000004 8
 c414 R0000065 7 R0000005 1
 c415 R0000065 8 R0000006 2
 c416 R0000065 14 R0000007 1
 c417 R0000065 14 R0000008 1
 c418 R0000009 1
 c419 R0000010 1
 c420 R0000001 1
 c421 R0000066 8 R0000002 8
 c422 R0000066 7 R0000003 1
 c423 R0000066 8 R0000004 8
 c424 R0000066 7 R0000005 1
 c425 R0000066 8 R0000006 2
 c426 R0000066 14 R0000007 1
 c427 R0000066 14 R0000008 1
 c428 R0000009 1
 c429 R0000010 1
 c430 R0000001 1
 c431 R0000067 8 R0000002 8
 c432 R0000067 7 R0000003 1
 c433 R0000067 8 R0000004 8
 c434 R0000067 7 R0000005 1
 c435 R0000067 8 R0000006 2
 c436 R0000067 14 R0000007 1
 c437 R0000067 14 R0000008 1
 c438 R0000009 1
 c439 R0000010 1
 c440 R0000001 1
 c441 R0000068 128 R0000002 128
 c442 R0000068 7 R0000003 1
 c443 R0000068 8 R0000004 8
 c444 R0000068 7 R0000005 1
 c445 R0000068 8 R0000006 2
 c446 R0000068 14 R0000007 1
 c447 R0000068 14 R0000008 1
 c448 R0000009 1
 c449 R0000010 1
 c450 R0000015 1 R0000014 1
 c450 R0000013 1 R0000012 1
 c450 R0000011 1
 c451 R0000016 1 R0000011 -1
 c452 R0000017 1 R0000012 -1
 c453 R0000018 1 R0000013 -1
 c454 R0000019 1 R0000014 -1
 c455 R0000020 1 R0000017 -1
 c455 R0000016 -1
 c456 R0000021 1 R0000015 -1
 c457 R0000022 1 R0000019 -1
 c457 R0000018 -1
 c458 R0000023 1 R0000022 -1
 c458 R0000021 -1 R0000020 -1
 c459 R0000023 -1
 c460 R0000000 4 R0000068 -4
 c460 R0000067 -4 R0000066 -4
 c460 R0000065 -4 R0000064 -4
 c460 R0000063 -4 R0000062 -4
 c460 R0000061 -4 R0000060 -4
 c460 R0000059 -4 R0000058 -4
 c460 R0000057 -4 R0000056 -4
 c460 R0000055 -4 R0000054 -4
 c460 R0000053 -4 R0000052 -4
 c460 R0000051 -4 R0000050 -4
 c460 R0000049 -4 R0000048 -4
 c460 R0000047 -4 R0000046 -4
 c460 R0000045 -4 R0000044 -4
 c460 R0000043 -4 R0000042 -4
 c460 R0000041 -4 R0000040 -4
 c460 R0000039 -4 R0000038 -4
 c460 R0000037 -4 R0000036 -4
 c460 R0000035 -4 R0000034 -4
 c460 R0000033 -4 R0000032 -4
 c460 R0000031 -4 R0000030 -4
 c460 R0000029 -4 R0000028 -4
 c460 R0000027 -4 R0000026 -4
 c460 R0000025 -4 R0000024 -4
 c461 R0000011 1
 c462 R0000012 1
 c463 R0000013 1
 c464 R0000014 1
 c465 R0000015 1
 c466 R0000016 1
 c467 R0000017 1
 c468 R0000018 1
 c469 R0000019 1
 c470 R0000020 1
 c471 R0000021 1
 c472 R0000022 1
 c473 R0000023 1
 c474 R0000024 128
 c475 R0000025 128
 c476 R0000026 128
 c477 R0000027 128
 c478 R0000028 128
 c479 R0000029 128
 c480 R0000030 128
 c481 R0000031 128
 c482 R0000032 128
 c483 R0000033 128
 c484 R0000034 128
 c485 R0000035 128
 c486 R0000036 128
 c487 R0000037 128
 c488 R0000038 128
 c489 R0000039 128
 c490 R0000040 128
 c491 R0000041 128
 c492 R0000042 128
 c493 R0000043 128
 c494 R0000044 128
 c495 R0000045 32
 c496 R0000046 128
 c497 R0000047 128
 c498 R0000048 128
 c499 R0000049 128
 c500 R0000050 128
 c501 R0000051 128
 c502 R0000052 128
 c503 R0000053 128
 c504 R0000054 128
 c505 R0000055 128
 c506 R0000056 128
 c507 R0000057 128
 c508 R0000058 128
 c509 R0000059 128
 c510 R0000060 128
 c511 R0000061 128
 c512 R0000062 128
 c513 R0000063 128
 c514 R0000064 128
 c515 R0000065 128
 c516 R0000066 128
 c517 R0000067 128
 c518 R0000068 128
RHS
 RHS1 R0000002 11 R0000003 7
 RHS1 R0000004 16 R0000005 12
 RHS1 R0000006 11 R0000007 13
 RHS1 R0000008 15 R0000009 10
 RHS1 R0000016 -11 R0000017 -7
 RHS1 R0000018 -16 R0000019 -12
 RHS1 R0000020 -11 R0000021 -13
 RHS1 R0000022 -15 R0000023 -10
BOUNDS
 UP BND1 c0 1
 UP BND1 c1 0.125
 UP BND1 c2 1
 UP BND1 c3 0.125
 UP BND1 c4 1
 UP BND1 c5 0.5
 UP BND1 c6 1
 UP BND1 c7 1
 UP BND1 c8 1
 UP BND1 c9 1
 UP BND1 c10 1
 UP BND1 c11 0.125
 UP BND1 c12 1
 UP BND1 c13 0.125
 UP BND1 c14 1
 UP BND1 c15 0.5
 UP BND1 c16 1
 UP BND1 c17 1
 UP BND1 c18 1
 UP BND1 c19 1
 UP BND1 c20 1
 UP BND1 c21 0.125
 UP BND1 c22 1
 UP BND1 c23 0.125
 UP BND1 c24 1
 UP BND1 c25 0.5
 UP BND1 c26 1
 UP BND1 c27 1
 UP BND1 c28 1
 UP BND1 c29 1
 UP BND1 c30 1
 UP BND1 c31 0.125
 UP BND1 c32 1
 UP BND1 c33 0.125
 UP BND1 c34 1
 UP BND1 c35 0.5
 UP BND1 c36 1
 UP BND1 c37 1
 UP BND1 c38 1
 UP BND1 c39 1
 UP BND1 c40 1
 UP BND1 c41 0.03125
 UP BND1 c42 1
 UP BND1 c43 0.125
 UP BND1 c44 1
 UP BND1 c45 0.5
 UP BND1 c46 1
 UP BND1 c47 1
 UP BND1 c48 1
 UP BND1 c49 1
 UP BND1 c50 1
 UP BND1 c51 0.125
 UP BND1 c52 1
 UP BND1 c53 0.125
 UP BND1 c54 1
 UP BND1 c55 0.5
 UP BND1 c56 1
 UP BND1 c57 1
 UP BND1 c58 1
 UP BND1 c59 1
 UP BND1 c60 1
 UP BND1 c61 0.125
 UP BND1 c62 1
 UP BND1 c63 0.125
 UP BND1 c64 1
 UP BND1 c65 0.5
 UP BND1 c66 1
 UP BND1 c67 1
 UP BND1 c68 1
 UP BND1 c69 1
 UP BND1 c70 1
 UP BND1 c71 0.125
 UP BND1 c72 1
 UP BND1 c73 0.125
 UP BND1 c74 1
 UP BND1 c75 0.5
 UP BND1 c76 1
 UP BND1 c77 1
 UP BND1 c78 1
 UP BND1 c79 1
 UP BND1 c80 1
 UP BND1 c81 0.125
 UP BND1 c82 1
 UP BND1 c83 0.125
 UP BND1 c84 1
 UP BND1 c85 0.5
 UP BND1 c86 1
 UP BND1 c87 1
 UP BND1 c88 1
 UP BND1 c89 1
 UP BND1 c90 1
 UP BND1 c91 0.125
 UP BND1 c92 1
 UP BND1 c93 0.125
 UP BND1 c94 1
 UP BND1 c95 0.5
 UP BND1 c96 1
 UP BND1 c97 1
 UP BND1 c98 1
 UP BND1 c99 1
 UP BND1 c100 1
 UP BND1 c101 0.125
 UP BND1 c102 1
 UP BND1 c103 0.125
 UP BND1 c104 1
 UP BND1 c105 0.5
 UP BND1 c106 1
 UP BND1 c107 1
 UP BND1 c108 1
 UP BND1 c109 1
 UP BND1 c110 1
 UP BND1 c111 0.125
 UP BND1 c112 1
 UP BND1 c113 0.125
 UP BND1 c114 1
 UP BND1 c115 0.5
 UP BND1 c116 1
 UP BND1 c117 1
 UP BND1 c118 1
 UP BND1 c119 1
 UP BND1 c120 1
 UP BND1 c121 0.125
 UP BND1 c122 1
 UP BND1 c123 0.125
 UP BND1 c124 1
 UP BND1 c125 0.5
 UP BND1 c126 1
 UP BND1 c127 1
 UP BND1 c128 1
 UP BND1 c129 1
 UP BND1 c130 1
 UP BND1 c131 0.125
 UP BND1 c132 1
 UP BND1 c133 0.125
 UP BND1 c134 1
 UP BND1 c135 0.5
 UP BND1 c136 1
 UP BND1 c137 1
 UP BND1 c138 1
 UP BND1 c139 1
 UP BND1 c140 1
 UP BND1 c141 0.125
 UP BND1 c142 1
 UP BND1 c143 0.125
 UP BND1 c144 1
 UP BND1 c145 0.5
 UP BND1 c146 1
 UP BND1 c147 1
 UP BND1 c148 1
 UP BND1 c149 1
 UP BND1 c150 1
 UP BND1 c151 0.125
 UP BND1 c152 1
 UP BND1 c153 0.125
 UP BND1 c154 1
 UP BND1 c155 0.5
 UP BND1 c156 1
 UP BND1 c157 1
 UP BND1 c158 1
 UP BND1 c159 1
 UP BND1 c160 1
 UP BND1 c161 0.125
 UP BND1 c162 1
 UP BND1 c163 0.125
 UP BND1 c164 1
 UP BND1 c165 0.5
 UP BND1 c166 1
 UP BND1 c167 1
 UP BND1 c168 1
 UP BND1 c169 1
 UP BND1 c170 1
 UP BND1 c171 0.125
 UP BND1 c172 1
 UP BND1 c173 0.125
 UP BND1 c174 1
 UP BND1 c175 0.5
 UP BND1 c176 1
 UP BND1 c177 1
 UP BND1 c178 1
 UP BND1 c179 1
 UP BND1 c180 1
 UP BND1 c181 0.125
 UP BND1 c182 1
 UP BND1 c183 0.125
 UP BND1 c184 1
 UP BND1 c185 0.5
 UP BND1 c186 1
 UP BND1 c187 1
 UP BND1 c188 1
 UP BND1 c189 1
 UP BND1 c190 1
 UP BND1 c191 0.125
 UP BND1 c192 1
 UP BND1 c193 0.125
 UP BND1 c194 1
 UP BND1 c195 0.5
 UP BND1 c196 1
 UP BND1 c197 1
 UP BND1 c198 1
 UP BND1 c199 1
 UP BND1 c200 1
 UP BND1 c201 0.125
 UP BND1 c202 1
 UP BND1 c203 0.125
 UP BND1 c204 1
 UP BND1 c205 0.5
 UP BND1 c206 1
 UP BND1 c207 1
 UP BND1 c208 1
 UP BND1 c209 1
 UP BND1 c210 1
 UP BND1 c211 0.5
 UP BND1 c212 1
 UP BND1 c213 0.5
 UP BND1 c214 1
 UP BND1 c215 1
 UP BND1 c216 1
 UP BND1 c217 1
 UP BND1 c218 1
 UP BND1 c219 1
 UP BND1 c220 1
 UP BND1 c221 0.125
 UP BND1 c222 1
 UP BND1 c223 0.125
 UP BND1 c224 1
 UP BND1 c225 0.5
 UP BND1 c226 1
 UP BND1 c227 1
 UP BND1 c228 1
 UP BND1 c229 1
 UP BND1 c230 1
 UP BND1 c231 0.125
 UP BND1 c232 1
 UP BND1 c233 0.125
 UP BND1 c234 1
 UP BND1 c235 0.5
 UP BND1 c236 1
 UP BND1 c237 1
 UP BND1 c238 1
 UP BND1 c239 1
 UP BND1 c240 1
 UP BND1 c241 0.125
 UP BND1 c242 1
 UP BND1 c243 0.125
 UP BND1 c244 1
 UP BND1 c245 0.5
 UP BND1 c246 1
 UP BND1 c247 1
 UP BND1 c248 1
 UP BND1 c249 1
 UP BND1 c250 1
 UP BND1 c251 0.125
 UP BND1 c252 1
 UP BND1 c253 0.125
 UP BND1 c254 1
 UP BND1 c255 0.5
 UP BND1 c256 1
 UP BND1 c257 1
 UP BND1 c258 1
 UP BND1 c259 1
 UP BND1 c260 1
 UP BND1 c261 0.125
 UP BND1 c262 1
 UP BND1 c263 0.125
 UP BND1 c264 1
 UP BND1 c265 0.5
 UP BND1 c266 1
 UP BND1 c267 1
 UP BND1 c268 1
 UP BND1 c269 1
 UP BND1 c270 1
 UP BND1 c271 0.125
 UP BND1 c272 1
 UP BND1 c273 0.125
 UP BND1 c274 1
 UP BND1 c275 0.5
 UP BND1 c276 1
 UP BND1 c277 1
 UP BND1 c278 1
 UP BND1 c279 1
 UP BND1 c280 1
 UP BND1 c281 0.125
 UP BND1 c282 1
 UP BND1 c283 0.125
 UP BND1 c284 1
 UP BND1 c285 0.5
 UP BND1 c286 1
 UP BND1 c287 1
 UP BND1 c288 1
 UP BND1 c289 1
 UP BND1 c290 1
 UP BND1 c291 0.125
 UP BND1 c292 1
 UP BND1 c293 0.125
 UP BND1 c294 1
 UP BND1 c295 0.5
 UP BND1 c296 1
 UP BND1 c297 1
 UP BND1 c298 1
 UP BND1 c299 1
 UP BND1 c300 1
 UP BND1 c301 0.125
 UP BND1 c302 1
 UP BND1 c303 0.125
 UP BND1 c304 1
 UP BND1 c305 0.5
 UP BND1 c306 1
 UP BND1 c307 1
 UP BND1 c308 1
 UP BND1 c309 1
 UP BND1 c310 1
 UP BND1 c311 0.125
 UP BND1 c312 1
 UP BND1 c313 0.125
 UP BND1 c314 1
 UP BND1 c315 0.5
 UP BND1 c316 1
 UP BND1 c317 1
 UP BND1 c318 1
 UP BND1 c319 1
 UP BND1 c320 1
 UP BND1 c321 0.125
 UP BND1 c322 1
 UP BND1 c323 0.125
 UP BND1 c324 1
 UP BND1 c325 0.5
 UP BND1 c326 1
 UP BND1 c327 1
 UP BND1 c328 1
 UP BND1 c329 1
 UP BND1 c330 1
 UP BND1 c331 0.125
 UP BND1 c332 1
 UP BND1 c333 0.125
 UP BND1 c334 1
 UP BND1 c335 0.5
 UP BND1 c336 1
 UP BND1 c337 1
 UP BND1 c338 1
 UP BND1 c339 1
 UP BND1 c340 1
 UP BND1 c341 0.125
 UP BND1 c342 1
 UP BND1 c343 0.125
 UP BND1 c344 1
 UP BND1 c345 0.5
 UP BND1 c346 1
 UP BND1 c347 1
 UP BND1 c348 1
 UP BND1 c349 1
 UP BND1 c350 1
 UP BND1 c351 0.125
 UP BND1 c352 1
 UP BND1 c353 0.125
 UP BND1 c354 1
 UP BND1 c355 0.5
 UP BND1 c356 1
 UP BND1 c357 1
 UP BND1 c358 1
 UP BND1 c359 1
 UP BND1 c360 1
 UP BND1 c361 0.125
 UP BND1 c362 1
 UP BND1 c363 0.125
 UP BND1 c364 1
 UP BND1 c365 0.5
 UP BND1 c366 1
 UP BND1 c367 1
 UP BND1 c368 1
 UP BND1 c369 1
 UP BND1 c370 1
 UP BND1 c371 0.125
 UP BND1 c372 1
 UP BND1 c373 0.125
 UP BND1 c374 1
 UP BND1 c375 0.5
 UP BND1 c376 1
 UP BND1 c377 1
 UP BND1 c378 1
 UP BND1 c379 1
 UP BND1 c380 1
 UP BND1 c381 0.125
 UP BND1 c382 1
 UP BND1 c383 0.125
 UP BND1 c384 1
 UP BND1 c385 0.5
 UP BND1 c386 1
 UP BND1 c387 1
 UP BND1 c388 1
 UP BND1 c389 1
 UP BND1 c390 1
 UP BND1 c391 0.125
 UP BND1 c392 1
 UP BND1 c393 0.125
 UP BND1 c394 1
 UP BND1 c395 0.5
 UP BND1 c396 1
 UP BND1 c397 1
 UP BND1 c398 1
 UP BND1 c399 1
 UP BND1 c400 1
 UP BND1 c401 0.125
 UP BND1 c402 1
 UP BND1 c403 0.125
 UP BND1 c404 1
 UP BND1 c405 0.5
 UP BND1 c406 1
 UP BND1 c407 1
 UP BND1 c408 1
 UP BND1 c409 1
 UP BND1 c410 1
 UP BND1 c411 0.125
 UP BND1 c412 1
 UP BND1 c413 0.125
 UP BND1 c414 1
 UP BND1 c415 0.5
 UP BND1 c416 1
 UP BND1 c417 1
 UP BND1 c418 1
 UP BND1 c419 1
 UP BND1 c420 1
 UP BND1 c421 0.125
 UP BND1 c422 1
 UP BND1 c423 0.125
 UP BND1 c424 1
 UP BND1 c425 0.5
 UP BND1 c426 1
 UP BND1 c427 1
 UP BND1 c428 1
 UP BND1 c429 1
 UP BND1 c430 1
 UP BND1 c431 0.125
 UP BND1 c432 1
 UP BND1 c433 0.125
 UP BND1 c434 1
 UP BND1 c435 0.5
 UP BND1 c436 1
 UP BND1 c437 1
 UP BND1 c438 1
 UP BND1 c439 1
 UP BND1 c440 1
 UP BND1 c441 0.0078125
 UP BND1 c442 1
 UP BND1 c443 0.125
 UP BND1 c444 1
 UP BND1 c445 0.5
 UP BND1 c446 1
 UP BND1 c447 1
 UP BND1 c448 1
 UP BND1 c449 1
ENDATA
